Minimize
  z
Subject To
 c_0: x33 + x60 + x81 >= 1
 c_1: x25 + x53 + x91 >= 1
 c_2: x5 + x36 + x69 >= 1
 c_3: x7 + x38 + x71 >= 1
 c_4: x12 + x46 + x96 >= 1
 c_5: x26 + x53 + x92 >= 1
 c_6: x25 + x52 + x91 >= 1
 c_7: x9 + x42 + x74 >= 1
 c_8: x30 + x57 + x77 >= 1
 c_9: x28 + x55 + x89 >= 1
 c_10: x3 + x43 + x76 >= 1
 c_11: x30 + x57 + x78 >= 1
 c_12: x6 + x37 + x70 >= 1
 c_13: x31 + x58 + x78 >= 1
 c_14: x29 + x56 + x88 >= 1
 c_15: x31 + x58 + x79 >= 1
 c_16: x7 + x38 + x71 >= 1
 c_17: x18 + x65 + x99 >= 1
 c_18: x29 + x56 + x88 >= 1
 c_19: x13 + x45 + x76 >= 1
 c_20: x16 + x62 + x83 >= 1
 c_21: x20 + x48 + x93 >= 1
 c_22: x15 + x61 + x82 >= 1
 c_23: x3 + x43 + x77 >= 1
 c_24: x27 + x54 + x88 >= 1
 c_25: x15 + x62 + x82 >= 1
 c_26: x3 + x43 + x76 >= 1
 c_27: x15 + x61 + x82 >= 1
 c_28: x7 + x38 + x70 >= 1
 c_29: x19 + x47 + x85 >= 1
 c_30: x19 + x66 + x97 >= 1
 c_31: x10 + x41 + x84 >= 1
 c_32: x12 + x46 + x96 >= 1
 c_33: x27 + x55 + x89 >= 1
 c_34: x27 + x54 + x93 >= 1
 c_35: x27 + x54 + x93 >= 1
 c_36: x4 + x35 + x68 >= 1
 c_37: x3 + x43 + x76 >= 1
 c_38: x4 + x35 + x68 >= 1
 c_39: x6 + x37 + x70 >= 1
 c_40: x6 + x37 + x70 >= 1
 c_41: x6 + x37 + x69 >= 1
 c_42: x16 + x63 + x98 >= 1
 c_43: x12 + x47 + x95 >= 1
 c_44: x32 + x59 + x79 >= 1
 c_45: x17 + x64 + x98 >= 1
 c_46: x4 + x35 + x68 >= 1
 c_47: x17 + x64 + x99 >= 1
 c_48: x30 + x58 + x78 >= 1
 c_49: x23 + x51 + x90 >= 1
 c_50: x18 + x65 + x99 >= 1
 c_51: x14 + x61 + x81 >= 1
 c_52: x23 + x51 + x87 >= 1
 c_53: x28 + x55 + x87 >= 1
 c_54: x16 + x63 + x97 >= 1
 c_55: x26 + x53 + x92 >= 1
 c_56: x1 + x40 + x73 >= 1
 c_57: x7 + x38 + x71 >= 1
 c_58: x7 + x38 + x70 >= 1
 c_59: x15 + x62 + x82 >= 1
 c_60: x27 + x54 + x93 >= 1
 c_61: x18 + x65 + x75 >= 1
 c_62: x24 + x51 + x90 >= 1
 c_63: x10 + x41 + x84 >= 1
 c_64: x11 + x41 + x84 >= 1
 c_65: x33 + x60 + x80 >= 1
 c_66: x28 + x55 + x89 >= 1
 c_67: x30 + x57 + x78 >= 1
 c_68: x27 + x54 + x93 >= 1
 c_69: x3 + x43 + x76 >= 1
 c_70: x5 + x36 + x68 >= 1
 c_71: x17 + x63 + x98 >= 1
 c_72: x29 + x56 + x88 >= 1
 c_73: x1 + x40 + x73 >= 1
 c_74: x10 + x40 + x75 >= 1
 c_75: x33 + x44 + x72 >= 1
 c_76: x32 + x59 + x79 >= 1
 c_77: x16 + x62 + x83 >= 1
 c_78: x22 + x50 + x86 >= 1
 c_79: x22 + x50 + x86 >= 1
 c_80: x22 + x50 + x86 >= 1
 c_81: x26 + x54 + x92 >= 1
 c_82: x5 + x36 + x69 >= 1
 c_83: x6 + x37 + x69 >= 1
 c_84: x5 + x36 + x69 >= 1
 c_85: x11 + x41 + x84 >= 1
 c_86: x11 + x46 + x96 >= 1
 c_87: x23 + x51 + x90 >= 1
 c_88: x15 + x61 + x82 >= 1
 c_89: x15 + x61 + x82 >= 1
 c_90: x21 + x49 + x95 >= 1
 c_91: x33 + x60 + x81 >= 1
 c_92: x24 + x52 + x90 >= 1
 c_93: x28 + x55 + x89 >= 1
 c_94: x28 + x56 + x87 >= 1
 c_95: x16 + x62 + x83 >= 1
 c_96: x21 + x48 + x94 >= 1
 c_97: x9 + x42 + x85 >= 1
 c_98: x29 + x56 + x88 >= 1
 c_99: x13 + x45 + x83 >= 1
 c_100: x31 + x58 + x79 >= 1
 c_101: x12 + x46 + x96 >= 1
 c_102: x2 + x34 + x72 >= 1
 c_103: x31 + x59 + x79 >= 1
 c_104: x12 + x47 + x95 >= 1
 c_105: x24 + x51 + x90 >= 1
 c_106: x16 + x62 + x83 >= 1
 c_107: x29 + x57 + x77 >= 1
 c_108: x23 + x50 + x87 >= 1
 c_109: x19 + x66 + x97 >= 1
 c_110: x22 + x49 + x86 >= 1
 c_111: x21 + x48 + x95 >= 1
 c_112: x23 + x51 + x87 >= 1
 c_113: x18 + x64 + x99 >= 1
 c_114: x25 + x52 + x91 >= 1
 c_115: x5 + x36 + x68 >= 1
 c_116: x4 + x35 + x67 >= 1
 c_117: x11 + x66 + x96 >= 1
 c_118: x25 + x52 + x91 >= 1
 c_119: x17 + x63 + x98 >= 1
 c_120: x22 + x49 + x86 >= 1
 c_121: x17 + x64 + x98 >= 1
 c_122: x1 + x66 + x75 >= 1
 c_123: x21 + x49 + x95 >= 1
 c_124: x31 + x58 + x79 >= 1
 c_125: x8 + x40 + x74 >= 1
 c_126: x8 + x39 + x71 >= 1
 c_127: x14 + x44 + x72 >= 1
 c_128: x21 + x49 + x85 >= 1
 c_129: x9 + x42 + x74 >= 1
 c_130: x24 + x34 + x67 >= 1
 c_131: x10 + x41 + x84 >= 1
 c_132: x33 + x60 + x81 >= 1
 c_133: x11 + x66 + x96 >= 1
 c_134: x25 + x34 + x67 >= 1
 c_135: x13 + x45 + x83 >= 1
 c_136: x25 + x52 + x91 >= 1
 c_137: x2 + x34 + x72 >= 1
 c_138: x20 + x48 + x94 >= 1
 c_139: x30 + x57 + x78 >= 1
 c_140: x3 + x43 + x77 >= 1
 c_141: x18 + x64 + x99 >= 1
 c_142: x4 + x35 + x67 >= 1
 c_143: x13 + x39 + x73 >= 1
 c_144: x32 + x59 + x80 >= 1
 c_145: x32 + x59 + x80 >= 1
 c_146: x18 + x65 + x99 >= 1
 c_147: x14 + x61 + x81 >= 1
 c_148: x28 + x55 + x89 >= 1
 c_149: x9 + x40 + x74 >= 1
 c_150: x0 + x45 + x75 >= 1
 c_151: x19 + x65 + x97 >= 1
 c_152: x19 + x66 + x97 >= 1
 c_153: x12 + x47 + x95 >= 1
 c_154: x32 + x60 + x80 >= 1
 c_155: x19 + x47 + x85 >= 1
 c_156: x26 + x53 + x92 >= 1
 c_157: x26 + x53 + x92 >= 1
 c_158: x24 + x52 + x90 >= 1
 c_159: x0 + x39 + x73 >= 1
 c_160: x10 + x41 + x84 >= 1
 c_161: x9 + x42 + x85 >= 1
 c_162: x17 + x64 + x98 >= 1
 c_163: x29 + x56 + x77 >= 1
 c_164: x30 + x57 + x77 >= 1
 c_165: x9 + x39 + x74 >= 1
 c_166: x23 + x50 + x87 >= 1
 c_167: x13 + x44 + x73 >= 1
 c_168: x21 + x49 + x85 >= 1
 c_169: x14 + x44 + x72 >= 1
 c_170: x22 + x50 + x86 >= 1
 c_171: x26 + x53 + x92 >= 1
 c_172: x11 + x45 + x97 >= 1
 c_173: x2 + x34 + x75 >= 1
 c_174: x0 + x45 + x67 >= 1
 c_175: x8 + x39 + x71 >= 1
 c_176: x13 + x44 + x76 >= 1
 z_0: 240.73925 x0 - z <= 0
 z_1: 248.2968 x1 - z <= 0
 z_2: 270.64585 x2 - z <= 0
 z_3: 476.620425 x3 - z <= 0
 z_4: 425.480275 x4 - z <= 0
 z_5: 413.9629750000001 x5 - z <= 0
 z_6: 409.874 x6 - z <= 0
 z_7: 414.9941250000001 x7 - z <= 0
 z_8: 250.467375 x8 - z <= 0
 z_9: 462.08295 x9 - z <= 0
 z_10: 377.516375 x10 - z <= 0
 z_11: 459.3885 x11 - z <= 0
 z_12: 458.395475 x12 - z <= 0
 z_13: 472.849375 x13 - z <= 0
 z_14: 338.303425 x14 - z <= 0
 z_15: 472.116725 x15 - z <= 0
 z_16: 466.4205 x16 - z <= 0
 z_17: 462.8974 x17 - z <= 0
 z_18: 460.2337 x18 - z <= 0
 z_19: 441.013 x19 - z <= 0
 z_20: 152.959325 x20 - z <= 0
 z_21: 407.2900500000001 x21 - z <= 0
 z_22: 455.11465 x22 - z <= 0
 z_23: 477.835075 x23 - z <= 0
 z_24: 402.672075 x24 - z <= 0
 z_25: 446.7534 x25 - z <= 0
 z_26: 461.96815 x26 - z <= 0
 z_27: 457.3458000000001 x27 - z <= 0
 z_28: 478.243425 x28 - z <= 0
 z_29: 469.5876 x29 - z <= 0
 z_30: 477.352075 x30 - z <= 0
 z_31: 407.031925 x31 - z <= 0
 z_32: 443.98425 x32 - z <= 0
 z_33: 418.427625 x33 - z <= 0
 z_34: 437.932575 x34 - z <= 0
 z_35: 425.480275 x35 - z <= 0
 z_36: 413.9629750000001 x36 - z <= 0
 z_37: 409.874 x37 - z <= 0
 z_38: 414.9941250000001 x38 - z <= 0
 z_39: 417.7640250000001 x39 - z <= 0
 z_40: 402.4532 x40 - z <= 0
 z_41: 454.9065499999999 x41 - z <= 0
 z_42: 312.598 x42 - z <= 0
 z_43: 476.6106 x43 - z <= 0
 z_44: 412.8028000000001 x44 - z <= 0
 z_45: 473.5084 x45 - z <= 0
 z_46: 304.022575 x46 - z <= 0
 z_47: 367.3487500000001 x47 - z <= 0
 z_48: 302.582525 x48 - z <= 0
 z_49: 412.219775 x49 - z <= 0
 z_50: 461.267075 x50 - z <= 0
 z_51: 475.74005 x51 - z <= 0
 z_52: 443.596725 x52 - z <= 0
 z_53: 456.22175 x53 - z <= 0
 z_54: 455.3353 x54 - z <= 0
 z_55: 478.211675 x55 - z <= 0
 z_56: 469.8029 x56 - z <= 0
 z_57: 473.5228 x57 - z <= 0
 z_58: 430.368975 x58 - z <= 0
 z_59: 414.067225 x59 - z <= 0
 z_60: 433.203275 x60 - z <= 0
 z_61: 474.0984000000001 x61 - z <= 0
 z_62: 467.839675 x62 - z <= 0
 z_63: 312.622025 x63 - z <= 0
 z_64: 463.0862 x64 - z <= 0
 z_65: 382.167175 x65 - z <= 0
 z_66: 459.3026 x66 - z <= 0
 z_67: 438.409825 x67 - z <= 0
 z_68: 416.048125 x68 - z <= 0
 z_69: 411.311625 x69 - z <= 0
 z_70: 411.44285 x70 - z <= 0
 z_71: 416.24495 x71 - z <= 0
 z_72: 436.4249 x72 - z <= 0
 z_73: 419.707775 x73 - z <= 0
 z_74: 388.857675 x74 - z <= 0
 z_75: 392.94555 x75 - z <= 0
 z_76: 479.2765 x76 - z <= 0
 z_77: 476.84545 x77 - z <= 0
 z_78: 415.982275 x78 - z <= 0
 z_79: 479.009625 x79 - z <= 0
 z_80: 370.1791 x80 - z <= 0
 z_81: 409.238725 x81 - z <= 0
 z_82: 472.116725 x82 - z <= 0
 z_83: 468.3293 x83 - z <= 0
 z_84: 454.9065499999999 x84 - z <= 0
 z_85: 400.348975 x85 - z <= 0
 z_86: 455.11465 x86 - z <= 0
 z_87: 472.19225 x87 - z <= 0
 z_88: 391.285825 x88 - z <= 0
 z_89: 402.2548 x89 - z <= 0
 z_90: 479.5405500000001 x90 - z <= 0
 z_91: 353.11895 x91 - z <= 0
 z_92: 461.96815 x92 - z <= 0
 z_93: 376.9205000000001 x93 - z <= 0
 z_94: 151.6278 x94 - z <= 0
 z_95: 456.107725 x95 - z <= 0
 z_96: 456.8950999999999 x96 - z <= 0
 z_97: 459.434025 x97 - z <= 0
 z_98: 463.8819 x98 - z <= 0
 z_99: 461.67095 x99 - z <= 0
Bounds
 x0 <= 1
 x1 <= 1
 x2 <= 1
 x3 <= 1
 x4 <= 1
 x5 <= 1
 x6 <= 1
 x7 <= 1
 x8 <= 1
 x9 <= 1
 x10 <= 1
 x11 <= 1
 x12 <= 1
 x13 <= 1
 x14 <= 1
 x15 <= 1
 x16 <= 1
 x17 <= 1
 x18 <= 1
 x19 <= 1
 x20 <= 1
 x21 <= 1
 x22 <= 1
 x23 <= 1
 x24 <= 1
 x25 <= 1
 x26 <= 1
 x27 <= 1
 x28 <= 1
 x29 <= 1
 x30 <= 1
 x31 <= 1
 x32 <= 1
 x33 <= 1
 x34 <= 1
 x35 <= 1
 x36 <= 1
 x37 <= 1
 x38 <= 1
 x39 <= 1
 x40 <= 1
 x41 <= 1
 x42 <= 1
 x43 <= 1
 x44 <= 1
 x45 <= 1
 x46 <= 1
 x47 <= 1
 x48 <= 1
 x49 <= 1
 x50 <= 1
 x51 <= 1
 x52 <= 1
 x53 <= 1
 x54 <= 1
 x55 <= 1
 x56 <= 1
 x57 <= 1
 x58 <= 1
 x59 <= 1
 x60 <= 1
 x61 <= 1
 x62 <= 1
 x63 <= 1
 x64 <= 1
 x65 <= 1
 x66 <= 1
 x67 <= 1
 x68 <= 1
 x69 <= 1
 x70 <= 1
 x71 <= 1
 x72 <= 1
 x73 <= 1
 x74 <= 1
 x75 <= 1
 x76 <= 1
 x77 <= 1
 x78 <= 1
 x79 <= 1
 x80 <= 1
 x81 <= 1
 x82 <= 1
 x83 <= 1
 x84 <= 1
 x85 <= 1
 x86 <= 1
 x87 <= 1
 x88 <= 1
 x89 <= 1
 x90 <= 1
 x91 <= 1
 x92 <= 1
 x93 <= 1
 x94 <= 1
 x95 <= 1
 x96 <= 1
 x97 <= 1
 x98 <= 1
 x99 <= 1
 z <= 10000
Generals
 x0 x1 x2 x3 x4 x5 x6 x7 x8 x9 x10 x11 x12 x13 x14 x15 x16 x17 x18 x19 x20
 x21 x22 x23 x24 x25 x26 x27 x28 x29 x30 x31 x32 x33 x34 x35 x36 x37 x38
 x39 x40 x41 x42 x43 x44 x45 x46 x47 x48 x49 x50 x51 x52 x53 x54 x55 x56
 x57 x58 x59 x60 x61 x62 x63 x64 x65 x66 x67 x68 x69 x70 x71 x72 x73 x74
 x75 x76 x77 x78 x79 x80 x81 x82 x83 x84 x85 x86 x87 x88 x89 x90 x91 x92
 x93 x94 x95 x96 x97 x98 x99
End
